SystemName       leads
SystemLabel      leads
NumberOfAtoms    4 
NumberOfSpecies  2

%block ChemicalSpeciesLabel
 1    5    B
 2    7    N
%endblock ChemicalSpeciesLabel

LatticeConstant 1.0 Ang

%block LatticeVectors
     4.5704380699999998    0.0000085040000000    0.0000000000000000
    -0.0000051930000000    2.4957905210000000    0.0000000000000000
     0.0000000000000000    0.0000000000000000   24.0381749109999987
%endblock LatticeVectors


%block kgrid_Monkhorst_Pack
 30   0   0    0.0
 0    40  0    0.0
 0    0   1    0.0
%endblock kgrid_Monkhorst_Pack

AtomicCoordinatesFormat Ang
AtomCoorFormatOut       Ang 

%block AtomicCoordinatesAndAtomicSpecies
      3.00503088       1.87056124      11.90590979    2    7 
      1.57198925       1.87056521      11.90593770    2    7 
      3.72131032       0.62267451      11.90665219    1    5 
      0.85568101       0.62267824      11.90667613    1    5 
%endblock AtomicCoordinatesAndAtomicSpecies

#======= General variables ======
SpinPolarized    .true.
PAO.BasisSize     DZP
PAO.SplitTailNorm true
PAO.SplitNormH          0.30

MeshCutoff            250.0 Ry
XC.functional         GGA 
XC.authors            PBE
ElectronicTemperature   25 meV
UseSaveData           .true.
PAO.EnergyShift       0.15 eV

#============== MD variables =======
MD.TypeOfRun          CG
MD.NumCGsteps         40
MD.MaxForceTol        0.01 eV/Ang
MD.MaxStressTol       0.01 GPa
MD.UseSaveXV          .true.
MD.FinalTimeStep      1
MD.VariableCell F
MD.ConstantVolume T
#======== SCF variables ==========
MaxSCFIterations      1000
DM.MixingWeight       0.01
DM.NumberPulay        3
DM.UseSaveDM          .true.
DM.Tolerance           1.d-4

#======== Write ============

SolutionMethod        diagon
ParallelOverK         .true.

WriteMullikenPop                 1
WriteKbands                     .true.
WriteBands                      .true.
SaveRho                         .true.
SaveDeltaRho                    .true.
SaveHS                          .false.
SaveElectrostaticPotential      F
SaveTotalPotential              no
WriteCoorXmol                   .true.
WriteMDXmol                     .true.
WriteMDhistory                  .false.
WriteEigenvalues                 yes

%block ProjectedDensityOfStates
       -16.00  12.00  0.05  3500  eV
%endblock ProjectedDensityOfStates

%block PDOS.kgrid_Monkhorst_Pack
    30 0   0  0.0
    0  40  0  0.0
    0  0   1   0.0
%endblock PDOS.kgrid_Monkhorst_Pack

BandLinesScale ReciprocalLatticeVectors

%block BandLines
1    0.0 0.0 0.0   G
100  0.5 0.0 0.0   X
100  0.5 0.5 0.0   S
100  0.0 0.5 0.0   Y
100  0.0 0.0 0.0   G
100  0.5 0.5 0.0   S
%endblock BandLines
