 N  B  N  B  N  B  N  B  N  B  N  B  N  B  N  B  N  B  N  B  N  B  N  B  N  B  N  B  N  B  N  B  N  B  N  B  N  B  N  B  N  B  N  B  N  B  N  B  N  B  N  B  N  B  N  B  N  B  N  B  N  B  N  B  N  B  N  B  N  B  N  B  N  B  N  B  N  B  N  B  N  B  N  B  N  B  N  B  N  B  N  B  N  B  N  B  N  B  N  B  N  B  N  B  N  B  N  B  N  O  N  H  P  H  S  O  P  F 
 1.0000000000000000
    41.1339426300000000    0.0000765360000000    0.0000000000000000
    -0.0000311580000000   14.9747431259999999    0.0000000000000000
     0.0000000000000000    0.0000000000000000   24.0381749109999987
 N  B  N  B  N  B  N  B  N  B  N  B  N  B  N  B  N  B  N  B  N  B  N  B  N  B  N  B  N  B  N  B  N  B  N  B  N  B  N  B  N  B  N  B  N  B  N  B  N  B  N  B  N  B  N  B  N  B  N  B  N  B  N  B  N  B  N  B  N  B  N  B  N  B  N  B  N  B  N  B  N  B  N  B  N  B  N  B  N  B  N  B  N  B  N  B  N  B  N  B  N  B  N  B  N  B  N  B  N  O  N  H  P  H  S  O  P  F 
   2   2   2   2   2   2   2   2   2   2   2   2   2   2   2   2   2   2   2   2   2   2   2   2   2   2   2   2   2   2   2   2   2   2   2   2   2   2   2   2   2   2   2   2   2   2   2   2   2   2   2   2   2   2   2   2   2   2   2   2   2   2   2   2   2   2   2   2   2   2   2   2   2   2   2   2   2   2   2   2   2   2   2   2   2   2   2   2   2   2   2   2   2   2   2   2   2   2   2   2   2   2   2   2   2   2   2   2   2   1   1   3   1   3   1   2   1   3
Cartesian
  3.0050308845052185  1.8705612406793648 11.9059097905898081
  1.5719892509054332  1.8705652105929278 11.9059376989108792
  3.7213103186581886  0.6226745057904018 11.9066521855837593
  0.8556810056582268  0.6226782435509420 11.9066761276059712
  3.0050256915052187  4.3663517616793648 11.9059097905898081
  1.5719840579054332  4.3663557315929280 11.9059376989108792
  3.7213051256581888  3.1184650267904019 11.9066521855837593
  0.8556758126582268  3.1184687645509421 11.9066761276059712
  3.0050204985052185  6.8621422826793648 11.9059097905898081
  1.5719788649054331  6.8621462525929280 11.9059376989108792
  3.7212999326581886  5.6142555477904015 11.9066521855837593
  0.8556706196582268  5.6142592855509417 11.9066761276059712
  3.0050153055052187  9.3579328036793648 11.9059097905898081
  1.5719736719054331  9.3579367735929271 11.9059376989108792
  3.7212947396581888  8.1100460687904015 11.9066521855837593
  0.8556654266582268  8.1100498065509417 11.9066761276059712
  3.0050101125052184 11.8537233246793647 11.9059097905898081
  1.5719684789054331 11.8537272945929271 11.9059376989108792
  3.7212895466581886 10.6058365897904014 11.9066521855837593
  0.8556602336582269 10.6058403275509416 11.9066761276059712
  3.0050049195052186 14.3495138456793647 11.9059097905898081
  1.5719632859054331 14.3495178155929271 11.9059376989108792
  3.7212843536581888 13.1016271107904014 11.9066521855837593
  0.8556550406582268 13.1016308485509416 11.9066761276059712
  7.5754689545052187  1.8705697446793648 11.9059097905898081
  6.1424273209054334  1.8705737145929278 11.9059376989108792
  8.2917483886581884  0.6226830097904018 11.9066521855837593
  5.4261190756582263  0.6226867475509420 11.9066761276059712
  7.5754637615052189  4.3663602656793650 11.9059097905898081
  6.1424221279054336  4.3663642355929282 11.9059376989108792
  8.2917431956581886  3.1184735307904021 11.9066521855837593
  5.4261138826582265  3.1184772685509423 11.9066761276059712
  7.5754585685052191  6.8621507866793650 11.9059097905898081
  6.1424169349054338  6.8621547565929282 11.9059376989108792
  8.2917380026581888  5.6142640517904017 11.9066521855837593
  5.4261086896582267  5.6142677895509419 11.9066761276059712
  7.5754533755052176  9.3579413076793649 11.9059097905898081
  6.1424117419054323  9.3579452775929273 11.9059376989108792
  8.2917328096581890  8.1100545727904017 11.9066521855837593
  5.4261034966582260  8.1100583105509418 11.9066761276059712
  7.5754481825052178 11.8537318286793649 11.9059097905898081
  6.1424065489054325 11.8537357985929273 11.9059376989108792
  8.2917276166581892 10.6058450937904016 11.9066521855837593
  5.4260983036582262 10.6058488315509418 11.9066761276059712
  7.5754429895052180 14.3495223496793649 11.9059097905898081
  6.1424013559054327 14.3495263195929272 11.9059376989108792
  8.2917224236581895 13.1016356147904016 11.9066521855837593
  5.4260931106582264 13.1016393525509418 11.9066761276059712
 12.1459070245052185  1.8705782486793647 11.9059097905898081
 10.7128653909054332  1.8705822185929277 11.9059376989108792
 12.8621864586581882  0.6226915137904019 11.9066521855837593
  9.9965571456582261  0.6226952515509421 11.9066761276059712
 12.1459018315052187  4.3663687696793652 11.9059097905898081
 10.7128601979054334  4.3663727395929275 11.9059376989108792
 12.8621812656581884  3.1184820347904019 11.9066521855837593
  9.9965519526582263  3.1184857725509421 11.9066761276059712
 12.1458966385052189  6.8621592906793651 11.9059097905898081
 10.7128550049054336  6.8621632605929284 11.9059376989108792
 12.8621760726581886  5.6142725557904019 11.9066521855837593
  9.9965467596582265  5.6142762935509420 11.9066761276059712
 12.1458914455052192  9.3579498116793651 11.9059097905898081
 10.7128498119054338  9.3579537815929275 11.9059376989108792
 12.8621708796581888  8.1100630767904018 11.9066521855837593
  9.9965415666582267  8.1100668145509420 11.9066761276059712
 12.1458862525052194 11.8537403326793651 11.9059097905898081
 10.7128446189054340 11.8537443025929274 11.9059376989108792
 12.8621656866581890 10.6058535977904018 11.9066521855837593
  9.9965363736582269 10.6058573355509420 11.9066761276059712
 12.1458810595052178 14.3495308536793651 11.9059097905898081
 10.7128394259054325 14.3495348235929274 11.9059376989108792
 12.8621604936581875 13.1016441187904018 11.9066521855837593
  9.9965311806582253 13.1016478565509420 11.9066761276059712
 16.7163450945052183  1.8705867526793647 11.9059097905898081
 15.2833034609054330  1.8705907225929277 11.9059376989108792
 17.4326245286581880  0.6227000177904018 11.9066521855837593
 14.5669952156582259  0.6227037555509420 11.9066761276059712
 16.7163399015052185  4.3663772736793653 11.9059097905898081
 15.2832982679054332  4.3663812435929277 11.9059376989108792
 17.4326193356581882  3.1184905387904021 11.9066521855837593
 14.5669900226582261  3.1184942765509422 11.9066761276059712
 16.7163347085052187  6.8621677946793644 11.9059097905898081
 15.2832930749054334  6.8621717645929277 11.9059376989108792
 17.4326141426581884  5.6142810597904012 11.9066521855837593
 14.5669848296582263  5.6142847975509413 11.9066761276059712
 16.7163295155052190  9.3579583156793653 11.9059097905898081
 15.2832878819054336  9.3579622855929276 11.9059376989108792
 17.4326089496581886  8.1100715807904020 11.9066521855837593
 14.5669796366582265  8.1100753185509422 11.9066761276059712
 16.7163243225052192 11.8537488366793653 11.9059097905898081
 15.2832826889054338 11.8537528065929276 11.9059376989108792
 17.4326037566581888 10.6058621017904020 11.9066521855837593
 14.5669744436582267 10.6058658395509422 11.9066761276059712
 16.7163191295052158 14.3495393576793653 11.9059097905898081
 15.2832774959054323 14.3495433275929276 11.9059376989108792
 17.4325985636581891 13.1016526227904020 11.9066521855837593
 14.5669692506582251 13.1016563605509422 11.9066761276059712
 21.2867831645052163  1.8705952566793649 11.9059097905898081
 19.8537415309054310  1.8705992265929279 11.9059376989108792
 22.0030625986581896  0.6227085217904018 11.9066521855837593
 19.1374332856582257  0.6227122595509420 11.9066761276059712
 21.2867779715052166  4.3663857776793646 11.9059097905898081
 19.8537363379054312  4.3663897475929279 11.9059376989108792
 22.0030574056581898  3.1184990427904018 11.9066521855837593
 19.1374280926582259  3.1185027805509420 11.9066761276059712
 21.2867727785052168  6.8621762986793646 11.9059097905898081
 19.8537311449054314  6.8621802685929278 11.9059376989108792
 22.0030522126581900  5.6142895637904013 11.9066521855837593
 19.1374228996582261  5.6142933015509415 11.9066761276059712
 21.2867675855052170  9.3579668196793655 11.9059097905898081
 19.8537259519054317  9.3579707895929278 11.9059376989108792
 22.0030470196581902  8.1100800847904022 11.9066521855837593
 19.1374177066582263  8.1100838225509424 11.9066761276059712
 21.2867623925052172 11.8537573406793655 11.9059097905898081
 19.8537207589054319 11.8537613105929278 11.9059376989108792
 22.0030418266581904 10.6058706057904022 11.9066521855837593
 19.1374125136582265 10.6058743435509424 11.9066761276059712
 21.2867571995052174 14.3495478616793655 11.9059097905898081
 19.8537155659054321 14.3495518315929278 11.9059376989108792
 22.0030366336581906 13.1016611267904022 11.9066521855837593
 19.1374073206582267 13.1016648645509424 11.9066761276059712
 25.8572212345052179  1.8706037606793648 11.9059097905898081
 24.4241796009054326  1.8706077305929278 11.9059376989108792
 26.5735006686581912  0.6227170257904019 11.9066521855837593
 23.7078713556582272  0.6227207635509421 11.9066761276059712
 25.8572160415052181  4.3663942816793648 11.9059097905898081
 24.4241744079054328  4.3663982515929280 11.9059376989108792
 26.5734954756581914  3.1185075467904020 11.9066521855837593
 23.7078661626582274  3.1185112845509422 11.9066761276059712
 25.8572108485052183  6.8621848026793648 11.9059097905898081
 24.4241692149054330  6.8621887725929280 11.9059376989108792
 26.5734902826581916  5.6142980677904015 11.9066521855837593
 23.7078609696582276  5.6143018055509417 11.9066761276059712
 25.8572056555052185  9.3579753236793657 11.9059097905898081
 24.4241640219054332  9.3579792935929280 11.9059376989108792
 26.5734850896581918  8.1100885887904024 11.9066521855837593
 23.7078557766582279  8.1100923265509426 11.9066761276059712
 25.8572004625052188 11.8537658446793639 11.9059097905898081
 24.4241588289054334 11.8537698145929262 11.9059376989108792
 26.5734798966581920 10.6058791097904006 11.9066521855837593
 23.7078505836582281 10.6058828475509408 11.9066761276059712
 25.8571952695052190 14.3495563656793639 11.9059097905898081
 24.4241536359054336 14.3495603355929262 11.9059376989108792
 26.5734747036581922 13.1016696307904006 11.9066521855837593
 23.7078453906582283 13.1016733685509408 11.9066761276059712
 30.4276593045052159  1.8706122646793648 11.9059097905898081
 28.9946176709054306  1.8706162345929278 11.9059376989108792
 31.1439387386581856  0.6227255297904019 11.9066521855837593
 28.2783094256582253  0.6227292675509420 11.9066761276059712
 30.4276541115052162  4.3664027856793641 11.9059097905898081
 28.9946124779054308  4.3664067555929273 11.9059376989108792
 31.1439335456581858  3.1185160507904017 11.9066521855837593
 28.2783042326582255  3.1185197885509419 11.9066761276059712
 30.4276489185052164  6.8621933066793650 11.9059097905898081
 28.9946072849054310  6.8621972765929282 11.9059376989108792
 31.1439283526581860  5.6143065717904017 11.9066521855837593
 28.2782990396582257  5.6143103095509419 11.9066761276059712
 30.4276437255052166  9.3579838276793659 11.9059097905898081
 28.9946020919054313  9.3579877975929282 11.9059376989108792
 31.1439231596581863  8.1100970927904026 11.9066521855837593
 28.2782938466582259  8.1101008305509428 11.9066761276059712
 30.4276385325052168 11.8537743486793641 11.9059097905898081
 28.9945968989054315 11.8537783185929264 11.9059376989108792
 31.1439179666581865 10.6058876137904008 11.9066521855837593
 28.2782886536582261 10.6058913515509410 11.9066761276059712
 30.4276333395052170 14.3495648696793641 11.9059097905898081
 28.9945917059054317 14.3495688395929264 11.9059376989108792
 31.1439127736581867 13.1016781347904008 11.9066521855837593
 28.2782834606582263 13.1016818725509410 11.9066761276059712
 34.9980973745052140  1.8706207686793648 11.9059097905898081
 33.5650557409054286  1.8706247385929278 11.9059376989108792
 35.7143768086581872  0.6227340337904018 11.9066521855837593
 32.8487474956582233  0.6227377715509420 11.9066761276059712
 34.9980921815052142  4.3664112896793643 11.9059097905898081
 33.5650505479054289  4.3664152595929275 11.9059376989108792
 35.7143716156581874  3.1185245547904019 11.9066521855837593
 32.8487423026582235  3.1185282925509421 11.9066761276059712
 34.9980869885052144  6.8622018106793652 11.9059097905898081
 33.5650453549054291  6.8622057805929284 11.9059376989108792
 35.7143664226581876  5.6143150757904019 11.9066521855837593
 32.8487371096582237  5.6143188135509421 11.9066761276059712
 34.9980817955052146  9.3579923316793661 11.9059097905898081
 33.5650401619054293  9.3579963015929284 11.9059376989108792
 35.7143612296581878  8.1101055967904028 11.9066521855837593
 32.8487319166582239  8.1101093345509430 11.9066761276059712
 34.9980766025052148 11.8537828526793643 11.9059097905898081
 33.5650349689054295 11.8537868225929266 11.9059376989108792
 35.7143560366581880 10.6058961177904010 11.9066521855837593
 32.8487267236582241 10.6058998555509412 11.9066761276059712
 34.9980714095052150 14.3495733736793643 11.9059097905898081
 33.5650297759054297 14.3495773435929266 11.9059376989108792
 35.7143508436581882 13.1016866387904010 11.9066521855837593
 32.8487215306582243 13.1016903765509412 11.9066761276059712
 39.5685354445052155  1.8706292726793647 11.9059097905898081
 38.1354938109054302  1.8706332425929277 11.9059376989108792
 40.2848148786581888  0.6227425377904019 11.9066521855837593
 37.4191855656582248  0.6227462755509421 11.9066761276059712
 39.5685302515052157  4.3664197936793645 11.9059097905898081
 38.1354886179054304  4.3664237635929277 11.9059376989108792
 40.2848096856581890  3.1185330587904021 11.9066521855837593
 37.4191803726582251  3.1185367965509423 11.9066761276059712
 39.5685250585052160  6.8622103146793645 11.9059097905898081
 38.1354834249054306  6.8622142845929277 11.9059376989108792
 40.2848044926581892  5.6143235797904012 11.9066521855837593
 37.4191751796582253  5.6143273175509414 11.9066761276059712
 39.5685198655052162  9.3580008356793645 11.9059097905898081
 38.1354782319054308  9.3580048055929268 11.9059376989108792
 40.2847992996581894  8.1101141007904012 11.9066521855837593
 37.4191699866582255  8.1101178385509414 11.9066761276059712
 39.5685146725052164 11.8537913566793645 11.9059097905898081
 38.1354730389054311 11.8537953265929268 11.9059376989108792
 40.2847941066581896 10.6059046217904012 11.9066521855837593
 37.4191647936582257 10.6059083595509414 11.9066761276059712
 39.5685094795052166 14.3495818776793644 11.9059097905898081
 38.1354678459054313 14.3495858475929268 11.9059376989108792
 40.2847889136581898 13.1016951427904011 11.9066521855837593
 37.4191596006582259 13.1016988805509413 11.9066761276059712
 21.7438509973045910  8.1100819536706723 14.0039858308042717
 20.5771894548647793  8.1100819536706723 14.1060554899394202
 19.3896566373052543  8.1100819536706723 14.2099511490408794
 20.5702271701582085 11.7058722246706690 14.1978869065948565
 20.5702271701582085 12.6456032246706691 13.8095899065948569
 21.3840581701582089 11.2360072246706686 13.8095899065948569
 19.7563961701582080 11.2360072246706686 13.8095899065948569
 20.5702571547053239  4.3663875126361456 14.5667092447503350
 20.5702571547053239  5.5670345126361456 13.8189952447503366
 21.6100481547053249  3.7660645126361456 13.8189952447503366
 19.5304661547053229  3.7660645126361456 13.8189952447503366
 15.9998112952053262  6.9100650401361499 14.5996144114170008
 15.9998112952053262  8.1876820401361492 13.8590784114170020
 15.9998112952053262  5.6324480401361496 13.8590784114170020
 25.1406874352053258  8.1100822981361453 14.7971517447503338
 25.1406874352053258  9.4939432981361449 14.0088477447503337
 26.3391464352053255  7.4181512981361450 14.0088477447503337
 23.9422284352053261  7.4181512981361450 14.0088477447503337
