 N  B  N  B  N  B  N  B  N  B 
 1.0000000000000000
    22.8521903500000008    0.0000425200000000    0.0000000000000000
    -0.0000051930000000    2.4957905210000000    0.0000000000000000
     0.0000000000000000    0.0000000000000000   24.0381749109999987
   2   2   2   2   2   2   2   2   2   2
Cartesian
  3.0050308799347802  1.8705612406793564 11.9059097905898081
  1.5719892509054332  1.8705652105929278 11.9059376989108792
  3.7213103186581780  0.6226745107819829 11.9066521855837593
  0.8556810102286700  0.6226782410551600 11.9066761276059712
  7.5754689499347805  1.8705697446793563 11.9059097905898081
  6.1424273209054334  1.8705737145929278 11.9059376989108792
  8.2917483886581778  0.6226830147819828 11.9066521855837593
  5.4261190802286698  0.6226867450551600 11.9066761276059712
 12.1459070199347803  1.8705782486793563 11.9059097905898081
 10.7128653909054332  1.8705822185929277 11.9059376989108792
 12.8621864586581776  0.6226915187819829 11.9066521855837593
  9.9965571502286696  0.6226952490551600 11.9066761276059712
 16.7163450899347801  1.8705867526793563 11.9059097905898081
 15.2833034609054330  1.8705907225929277 11.9059376989108792
 17.4326245286581774  0.6227000227819829 11.9066521855837593
 14.5669952202286694  0.6227037530551600 11.9066761276059712
 21.2867831599347781  1.8705952566793564 11.9059097905898081
 19.8537415309054310  1.8705992265929279 11.9059376989108792
 22.0030625986581754  0.6227085267819829 11.9066521855837593
 19.1374332902286710  0.6227122570551600 11.9066761276059712
