 N  B 
 1.0000000000000000
     4.5704380699999998    0.0000085040000000    0.0000000000000000
    -0.0000051930000000    2.4957905210000000    0.0000000000000000
     0.0000000000000000    0.0000000000000000   24.0381749109999987
   2   2
Cartesian
  3.0050308799347802  1.8705612406793564 11.9059097905898081
  1.5719892509054332  1.8705652105929278 11.9059376989108792
  3.7213103186581780  0.6226745107819829 11.9066521855837593
  0.8556810102286700  0.6226782410551600 11.9066761276059712
